NAME : rnd2_50.tsp.tsp.optbc.tour
TYPE : TOUR
DIMENSION : 50
TOUR_SECTION
1
10
16
14
47
43
7
11
41
50
23
18
46
20
35
29
9
26
34
2
13
8
6
22
19
40
36
42
30
39
5
24
3
12
28
31
27
44
21
32
33
17
48
25
37
45
15
4
38
49
-1